n = 13;
lu = [|-166, 158
      |-116, 80
      |-164, 165
      |61, 129
      |121, 169
      |-88, -55
      |-74, 71
      |-92, -80
      |121, 127
      |-94, 101
      |4, 144
      |-91, -15
      |-143, -27|];
